# Solution for model F-JSSP-SDST
# Objective value = 232
B0(11) 0
B1(11) 1
B2(9) 0
B3(9) 1
B4(10) 1
B5(10) 0
B6(8) 1
B7(8) 0
B8(0) 0
B9(0) 0
B10(4) 0
B11(4) 0
B12(0) 0
B13(0) 0
B14(4) 0
B15(4) 0
B16(0) 0
B17(0) 0
B18(0) 0
B19(0) 0
B20(0) 0
B21(0) 0
B22(0) 0
B23(0) 0
I24(11) 0
I25(11) 8
I26(11) 0
I27(11) 48
I28(11) 0
I29(11) 0
I30(11) 49
I31(11) 0
I32(1) 232
